! Basic input generated by the pyWannier90. Date: Wed Aug 23 10:41:15 2023

num_bands       = 4
num_wann       = 4

Begin Unit_Cell_Cart
10.0000000   0.0000000   0.0000000
 0.0000000  10.0000000   0.0000000
 0.0000000   0.0000000  10.0000000
End Unit_Cell_Cart

Begin atoms_cart
H  5.0000000  5.0000000  4.0000000
H  5.0000000  5.0000000  5.0000000
End atoms_cart

!Additional keywords

num_iter = 5000
begin projections
random
H: s
end projections
guiding_centres = .true.



mp_grid        = 1 1 1
begin kpoints
0.0000000  0.0000000  0.0000000
End Kpoints
